echo               both
dimension          3
units              si
atom_style         hybrid  bond meso
boundary          p p p
variable          Lx  equal 1.803e-3*0.4
variable          Ly  equal ${Lx}
variable          Lz  equal ${Lx}
variable           dx   equal 2.5e-5
variable           sdpd_rho equal 1000
include            vars.lmp
region             box block 0.0 ${Lx}  0.0 ${Ly} 0.0 ${Lz} units box
create_box         1 box
lattice            sc ${dx}
create_atoms       1 region box
mass               1  ${sdpd_mass}
write_data      poly3d.txt
