echo               both
variable           ndim string  3
units              si
atom_style         hybrid  bond meso
boundary           p p p
comm_modify vel yes
# create simulation box

#3D box
variable          Lx  equal 1.803e-3*0.4
variable          Ly  equal ${Lx}
variable          Lz  equal ${Lx}
variable          dx   equal 2.5e-5
variable          sdpd_rho equal 1000
variable          sdpd_c equal 3e-1
variable          sdpd_eta equal 1.5e-2
variable          sdpd_mu  equal ${sdpd_eta}/${sdpd_rho}
variable          sdpd_temp index 1e7
variable          h equal 2.7*${dx}
variable          Nfreq equal 10000
variable          r0       equal 1.4*${dx}
variable          kb       equal 1.3806488e-23
variable          H        equal 200*${sdpd_temp}*${kb}/${r0}^2
include           vars.lmp

region             box block 0.0 ${Lx}  0.0 ${Ly} 0.0 ${Lz} units box
read_data           poly3d.txt

special_bonds      lj 1 1 1
bond_style         fene
bond_coeff         1 ${H} ${r0}  0 0
mass               1 ${sdpd_mass}
set                group all meso/rho ${sdpd_rho}
pair_style         sdpd/taitwater/isothermal ${sdpd_temp} ${sdpd_mu} 76787
pair_coeff         * * ${sdpd_rho} ${sdpd_c} ${h}
fix                integrate_fix_full all meso

dump               dump_id all custom 10000 dump.*.dat id type x y z vx vy vz
dump_modify        dump_id first yes
dump_modify        dump_id sort id
dump_modify        dump_id pad 8

thermo_modify      norm no
thermo             10
variable atomradius  equal ${dx}*0.25
dump imgDump all image 100 image.*.ppm type type atom no bond atom ${atomradius} view 60 60 zoom 2.8 box yes 0.01 size 1024 1024
dump_modify        imgDump pad 9

variable           skin equal 0.001*$h
neighbor           ${skin} bin
neigh_modify       delay 0 check no

include            settimestep.lmp
timestep           ${dt}

restart 10000 kana.restart

run  99999999 every 1000 "velocity all zero linear" &
"velocity all zero angular"
