clear
echo               both
variable           ndim string  3
dimension          ${ndim}
units              si
atom_style         hybrid  bond meso
boundary          p p p
#3D box
variable           Ly  equal 1.803e-3
variable           Lx  equal ${Ly}/50*10
variable           dx   equal 2.5e-5
variable           sdpd_rho equal 1000 
include            ${ndim}-vars.lmp
region             box block 0.0 ${Lx}  0.0 ${Ly} 0.0 ${Lz} units box
create_box         1 box
lattice            sc ${dx}
create_atoms       1 region box
mass               1  ${sdpd_mass}
timestep           0.0e-5
write_data      poly3d.txt
