dimension          3
units              si
atom_style         meso

variable           n    equal 50
variable           l    equal 1e-3
variable           Ly  equal 2*${l}
variable           F equal 1e-4
variable           mass equal 1
variable           rho equal 1e3
variable           eta  equal 1e-3
variable           c      equal 1.25e-4
variable           mu  equal ${eta}/${rho}
variable           dx   equal ${l}/${n}
variable           Lx  equal 6*${dx}
variable           Lz  equal 6*${dx}
variable           cutoff equal 3*${dx}
lattice            sc ${dx}
variable           mass equal ${rho}*${dx}^3
variable           dt equal 1e-5

region             box block 0.0 ${Lx}  0.0 ${Ly} 0.0 ${Lz} units box
create_box         1 box
create_atoms       1 region box
mass               1 ${mass}

set                group all meso/rho ${rho}
pair_style         sph/taitwater/morris
pair_coeff         * *  ${rho} ${c} ${eta} ${cutoff}

compute            rho_peratom all meso/rho/atom
fix                integrate all meso

compute            stress all stress/atom NULL
variable           xy atom c_stress[4]

dump               dump_id all custom 10000 *.dat id type x y z vx vy vz v_xy
dump_modify        dump_id first yes
dump_modify        dump_id sort id
dump_modify        dump_id pad 8
thermo             1000

variable           skin equal ${dx}/100
neighbor           ${skin} bin
neigh_modify       delay 0 check yes
timestep           ${dt}

variable           f atom ${mass}*$F*((y>${Ly}/2.0)-(y<${Ly}/2.0))
fix                reverce_periodic all addforce v_f 0 0

run                400000
