echo               both
dimension          3
units              si
atom_style         hybrid  bond sph
boundary           p p p
variable           sdpd_rho equal 1
include            vars.lmp
region             box block 0.0 ${Lx}  0.0 ${Ly} 0.0 ${Lz} units box
create_box         1 box
lattice            sc ${dx}
create_atoms       1 region box
mass               1  ${sdpd_mass}
write_data         poly3d.txt
